************************************************************************
file with basedata            : cr511_.bas
initial value random generator: 1311720300
************************************************************************
projects                      :  1
jobs (incl. supersource/sink ):  18
horizon                       :  119
RESOURCES
  - renewable                 :  5   R
  - nonrenewable              :  2   N
  - doubly constrained        :  0   D
************************************************************************
PROJECT INFORMATION:
pronr.  #jobs rel.date duedate tardcost  MPM-Time
    1     16      0       16       14       16
************************************************************************
PRECEDENCE RELATIONS:
jobnr.    #modes  #successors   successors
   1        1          3           2   3   4
   2        3          3           5   6   7
   3        3          3           6  10  13
   4        3          3           9  12  14
   5        3          3          10  14  17
   6        3          2          11  16
   7        3          3           8  12  13
   8        3          1          17
   9        3          3          11  13  16
  10        3          1          12
  11        3          1          17
  12        3          1          15
  13        3          1          15
  14        3          2          15  16
  15        3          1          18
  16        3          1          18
  17        3          1          18
  18        1          0        
************************************************************************
REQUESTS/DURATIONS:
jobnr. mode duration  R 1  R 2  R 3  R 4  R 5  N 1  N 2
------------------------------------------------------------------------
  1      1     0       0    0    0    0    0    0    0
  2      1     1       0    0    5    6    5    0    8
         2     3       9    0    5    0    0    2    0
         3     9       7    2    5    4    0    0    8
  3      1     1       0    9    5    6    0    0    7
         2     2       5    7    0    0    0    0    6
         3     4       0    6    0    4    0    0    5
  4      1     2       8    6    0    0    4    6    0
         2     5       8    0    0    5    2    0    5
         3     6       0    0    0    3    0    0    5
  5      1     3       9    0    0    8    0    0    7
         2     7       0    5    4    0   10    7    0
         3     9       6    4    0    0    9    0    7
  6      1     3       0    0    8    5    0    0    4
         2     5       8    5    0    0    5    5    0
         3    10       0    5    0    0    4    0    4
  7      1     2       6    0    2    4    0    0    6
         2     5       3    0    2    0    0    5    0
         3    10       2    3    0    3    0    0    4
  8      1     2       0    5    2    0    7    3    0
         2     3       0    0    2    3    0    3    0
         3     6       0    0    1    0    6    2    0
  9      1     1       5    0    4    8    3    0    6
         2     6       0    6    0    8    0    0    3
         3     6       0    3    3    0    0    0    3
 10      1     2       8    0    0    0    6    5    0
         2     2       8    0    7    0    4    4    0
         3     8       3    0    5    0    0    1    0
 11      1     2       0    0    0    0    2    0    4
         2     4       0    0    6    7    0    8    0
         3     9       5    0    0    0    0    0    4
 12      1     2       6    8    5    0    0    0    2
         2     5       5    5    5    0    8    0    2
         3    10       4    0    0    6    0    9    0
 13      1     1       8    0    9    3    0    0    7
         2     2       6    0    8    0    0    0    3
         3     5       4    0    0    2    0    0    3
 14      1     5       3   10    1    0    0    8    0
         2     7       2    7    0    0    0    0    5
         3     9       0    0    0    5    8    0    3
 15      1     7       9    7    0    0    4    0    4
         2     9       0    7    1    6    0    0    2
         3    10       7    4    0    6    0    3    0
 16      1     2      10    0    9    7    0    6    0
         2     3       9    8    9    0    5    5    0
         3     5       9    0    9    0    0    0    7
 17      1     1       6    0    5    3   10    5    0
         2     1       0    1    5    0    0    0    8
         3     3       6    0    0    0   10    5    0
 18      1     0       0    0    0    0    0    0    0
************************************************************************
RESOURCEAVAILABILITIES:
  R 1  R 2  R 3  R 4  R 5  N 1  N 2
   21   19   20   17   18   38   46
************************************************************************
